tsp_instances/TSP50/instance117.tsp
NODE_COORD_SECTION
0 133 34
1 113 90
2 189 117
3 43 67
4 99 191
5 48 166
6 142 25
7 145 152
8 56 190
9 75 12
10 155 106
11 126 11
12 120 111
13 60 10
14 10 144
15 156 56
16 39 6
17 4 12
18 121 50
19 21 144
20 13 37
21 44 117
22 160 56
23 103 39
24 88 28
25 123 56
26 92 102
27 184 28
28 137 121
29 51 65
30 106 93
31 154 192
32 114 40
33 108 200
34 62 32
35 116 81
36 189 149
37 196 16
38 56 71
39 158 156
40 154 121
41 163 119
42 91 59
43 100 84
44 39 83
45 154 148
46 170 153
47 40 36
48 135 105
49 56 134
