tsp_instances/TSP50/instance117.opt.tour
TOUR_SECTION
1
7
38
28
23
16
26
19
33
24
43
44
36
2
31
27
13
49
29
11
41
42
3
37
47
40
46
8
32
34
5
9
6
15
20
50
22
45
4
30
39
35
48
21
18
17
14
10
25
12
-1